(set-option :produce-models true)
(set-logic QF_UF)
(declare-fun p13() Bool)
(declare-fun p71() Bool)
(declare-fun p8() Bool)
(declare-fun p21() Bool)
(declare-fun p27() Bool)
(declare-fun p85() Bool)
(declare-fun p11() Bool)
(declare-fun p51() Bool)
(declare-fun p58() Bool)
(declare-fun p47() Bool)
(declare-fun p79() Bool)
(declare-fun p72() Bool)
(declare-fun p0() Bool)
(declare-fun p64() Bool)
(declare-fun p54() Bool)
(declare-fun p65() Bool)
(declare-fun p1() Bool)
(declare-fun p3() Bool)
(declare-fun p59() Bool)
(declare-fun p82() Bool)
(declare-fun p49() Bool)
(declare-fun p26() Bool)
(declare-fun p24() Bool)
(declare-fun p46() Bool)
(declare-fun p45() Bool)
(declare-fun p78() Bool)
(declare-fun p56() Bool)
(declare-fun p40() Bool)
(declare-fun p69() Bool)
(declare-fun p70() Bool)
(declare-fun p33() Bool)
(declare-fun p50() Bool)
(declare-fun p77() Bool)
(declare-fun p23() Bool)
(declare-fun p42() Bool)
(declare-fun p7() Bool)
(declare-fun p74() Bool)
(declare-fun p30() Bool)
(declare-fun p57() Bool)
(declare-fun p32() Bool)
(declare-fun p80() Bool)
(declare-fun p37() Bool)
(declare-fun p48() Bool)
(declare-fun p29() Bool)
(declare-fun p55() Bool)
(declare-fun p39() Bool)
(declare-fun p76() Bool)
(declare-fun p62() Bool)
(declare-fun p38() Bool)
(declare-fun p6() Bool)
(declare-fun p41() Bool)
(declare-fun p28() Bool)
(declare-fun p15() Bool)
(declare-fun p84() Bool)
(declare-fun p87() Bool)
(declare-fun p25() Bool)
(declare-fun p10() Bool)
(declare-fun p86() Bool)
(declare-fun p63() Bool)
(declare-fun p2() Bool)
(declare-fun p52() Bool)
(declare-fun p67() Bool)
(declare-fun p60() Bool)
(declare-fun p12() Bool)
(declare-fun p20() Bool)
(declare-fun p14() Bool)
(declare-fun p81() Bool)
(declare-fun p17() Bool)
(declare-fun p88() Bool)
(declare-fun p83() Bool)
(declare-fun p73() Bool)
(declare-fun p89() Bool)
(declare-fun p35() Bool)
(declare-fun p9() Bool)
(declare-fun p53() Bool)
(declare-fun p68() Bool)
(declare-fun p43() Bool)
(declare-fun p16() Bool)
(declare-fun p36() Bool)
(declare-fun p4() Bool)
(declare-fun p44() Bool)
(declare-fun p19() Bool)
(declare-fun p34() Bool)
(declare-fun p61() Bool)
(declare-fun p75() Bool)
(declare-fun p22() Bool)
(declare-fun p31() Bool)
(declare-fun p18() Bool)
(declare-fun p66() Bool)
(declare-fun p5() Bool)
(assert
(and (or p13 (not p71) p8) (or p21 p27 p85) (or (not p71) (not p11) (not p51)) (or (not p58) (not p47) p79) (or (not p72) (not p0) (not p64)) (or (not p54) p65 p1) (or p3 p59 (not p82)) (or p49 (not p26) p0) (or (not p24) p58 (not p46)) (or p45 (not p78) p56) (or (not p40) p69 (not p70)) (or p33 (not p1) p26) (or (not p45) p50 p77) (or p69 p1 (not p23)) (or p42 (not p7) (not p49)) (or p8 (not p74) (not p30)) (or p24 (not p78) (not p57)) (or (not p32) p80 (not p37)) (or (not p79) (not p48) (not p69)) (or p29 p40 p55) (or (not p1) p3 p39) (or (not p58) p76 (not p27)) (or p62 (not p38) (not p45)) (or p6 p41 p46) (or p46 p28 p15) (or (not p26) p82 (not p84)) (or p87 p47 p29) (or p56 p25 (not p10)) (or (not p86) (not p23) p63) (or p0 (not p7) p69) (or p2 p52 p69) (or (not p64) (not p67) p29) (or (not p21) (not p57) p60) (or p12 p12 (not p20)) (or p14 (not p81) p17) (or p11 p62 p88) (or (not p46) p71 p25) (or (not p83) p10 p85) (or p51 p63 p73) (or (not p50) (not p89) p60) (or (not p35) (not p7) p80) (or p86 (not p9) p37) (or p28 p69 p53) (or (not p86) p51 (not p14)) (or (not p60) p45 (not p28)) (or p68 (not p27) p88) (or (not p39) p80 p14) (or (not p78) p81 (not p0)) (or p43 p67 (not p84)) (or (not p17) (not p16) (not p81)) (or p76 p29 p68) (or p53 (not p78) (not p36)) (or (not p72) p46 p86) (or p4 (not p83) p44) (or (not p1) (not p37) p71) (or p79 (not p26) (not p14)) (or (not p85) p77 p85) (or (not p35) (not p80) (not p76)) (or (not p23) p60 (not p19)) (or (not p63) p34 (not p17)) (or p37 p82 (not p8)) (or (not p73) p12 p43) (or (not p43) (not p86) (not p51)) (or (not p13) p65 (not p61)) (or (not p58) (not p3) p75) (or p76 (not p48) p0) (or p7 (not p45) p22) (or p73 p46 (not p31)) (or p37 p65 p52) (or p33 p58 (not p83)) (or (not p78) (not p50) p21) (or p86 p8 p68) (or (not p67) p23 p23) (or p58 (not p37) p39) (or p18 p25 p3) (or (not p33) (not p48) (not p30)) (or p0 (not p4) p79) (or (not p80) p43 p33) (or (not p12) (not p13) p2) (or p36 p62 (not p55)) (or (not p6) p85 (not p85)) (or (not p80) p82 p86) (or p36 p89 (not p87)) (or (not p42) (not p26) p11) (or p73 (not p72) (not p13)) (or p43 (not p37) (not p1)) (or p67 p27 p42) (or (not p39) (not p1) (not p14)) (or (not p48) (not p85) p70) (or (not p57) p43 (not p57)) (or (not p19) p7 (not p84)) (or p57 p6 p38) (or p50 p24 p39) (or p35 p58 p45) (or p32 (not p75) (not p87)) (or (not p11) (not p10) (not p57)) (or (not p25) (not p62) p80) (or p4 p13 p55) (or p59 p24 (not p77)) (or (not p50) (not p58) p37) (or (not p13) (not p66) p52) (or p66 (not p6) p80) (or p58 (not p3) (not p72)) (or p13 (not p0) (not p19)) (or (not p38) p52 p69) (or (not p33) p52 (not p41)) (or (not p52) p72 (not p2)) (or p55 (not p53) p65) (or p70 p39 (not p44)) (or (not p25) (not p49) p87) (or (not p20) (not p88) (not p69)) (or (not p69) p27 p77) (or p40 (not p62) (not p30)) (or (not p0) p28 (not p46)) (or p7 (not p23) (not p33)) (or (not p50) p77 (not p6)) (or (not p24) (not p89) p44) (or (not p75) (not p15) p63) (or (not p61) p60 p36) (or (not p64) p41 (not p62)) (or p83 p25 p74) (or (not p77) p14 (not p54)) (or p1 p26 (not p44)) (or (not p21) p79 p36) (or (not p83) (not p65) p52) (or (not p30) (not p76) p31) (or (not p38) p78 (not p87)) (or p77 p68 p40) (or p77 (not p35) p74) (or p81 p72 (not p9)) (or p84 (not p82) p16) (or p70 (not p67) p59) (or p84 p9 p22) (or (not p0) (not p78) (not p66)) (or p24 p77 p89) (or (not p27) (not p46) (not p68)) (or p4 (not p83) (not p56)) (or p71 p81 (not p13)) (or (not p8) p58 (not p42)) (or p40 p50 p23) (or (not p37) (not p44) (not p13)) (or (not p81) (not p7) (not p29)) (or (not p19) (not p77) p13) (or (not p88) p3 (not p45)) (or (not p48) p0 p16) (or p15 (not p77) p6) (or p29 (not p39) (not p63)) (or (not p45) p29 (not p52)) (or (not p69) (not p7) (not p60)) (or (not p66) (not p70) (not p75)) (or (not p42) (not p51) p39) (or (not p85) (not p33) (not p13)) (or (not p10) p28 p87) (or (not p35) (not p26) (not p87)) (or (not p16) (not p20) p8) (or (not p13) p17 p72) (or (not p35) p0 (not p68)) (or p8 (not p74) (not p32)) (or p4 (not p78) (not p45)) (or p88 (not p40) (not p68)) (or p36 p83 p9) (or (not p39) p70 (not p87)) (or p42 (not p30) (not p32)) (or p4 p74 (not p52)) (or p79 (not p4) (not p70)) (or (not p23) p70 p56) (or (not p85) p76 p76) (or (not p25) (not p8) p30) (or (not p34) (not p87) p49) (or p27 (not p7) p26) (or (not p10) p49 (not p27)) (or p16 (not p34) p89) (or p49 p39 p27) (or p74 (not p80) p88) (or (not p18) p66 p78) (or (not p53) p72 p72) (or p3 p40 (not p19)) (or (not p31) p63 p38) (or (not p17) (not p22) p54) (or (not p38) p3 (not p24)) (or p77 p60 p47) (or p81 p83 p33) (or (not p65) p24 (not p1)) (or p89 (not p7) (not p9)) (or p79 p50 p41) (or p38 (not p58) (not p35)) (or (not p40) p78 p58) (or p41 (not p30) p82) (or p42 p7 p29) (or p53 p8 (not p57)) (or (not p1) (not p14) p58) (or p16 p25 p29) (or (not p59) (not p43) p26) (or p57 (not p85) (not p19)) (or p54 (not p76) (not p71)) (or (not p42) (not p28) (not p60)) (or (not p74) p42 p43) (or p86 (not p89) (not p67)) (or p50 p84 (not p24)) (or p40 (not p19) p60) (or p45 p41 p86) (or (not p50) p65 p83) (or p67 p80 p30) (or (not p61) p14 (not p40)) (or (not p55) p65 p31) (or (not p87) (not p16) (not p40)) (or (not p25) (not p31) p52) (or (not p44) (not p63) p54) (or (not p27) p6 (not p40)) (or p35 p50 (not p83)) (or (not p55) (not p87) (not p61)) (or (not p12) p10 (not p47)) (or (not p45) (not p10) p13) (or (not p4) p6 p69) (or p43 (not p51) (not p18)) (or p50 p52 (not p9)) (or p19 (not p52) p17) (or (not p48) p28 p19) (or (not p81) (not p41) p81) (or (not p58) (not p65) p45) (or p71 (not p77) (not p56)) (or (not p14) (not p84) p45) (or p72 (not p77) (not p28)) (or p20 (not p29) (not p40)) (or p26 p55 (not p11)) (or p82 p36 (not p43)) (or p16 p58 (not p0)) (or p72 (not p73) p25) (or (not p76) p51 p55) (or p29 p57 (not p14)) (or p21 p50 (not p41)) (or p12 (not p71) p63) (or (not p33) p20 p58) (or p6 (not p18) p1) (or (not p81) p0 p53) (or p55 p19 p88) (or (not p3) p6 p23) (or p8 p87 p38) (or (not p31) p70 p82) (or p16 p29 (not p35)) (or p58 (not p42) p30) (or (not p83) (not p52) p9) (or (not p20) (not p52) p9) (or (not p17) p23 (not p35)) (or (not p55) p9 (not p54)) (or p65 p19 p65) (or (not p74) p23 p26) (or (not p56) (not p12) (not p55)) (or p60 p82 p69) (or p35 p68 (not p4)) (or p1 (not p89) p13) (or (not p78) (not p34) (not p28)) (or (not p37) p0 (not p49)) (or p35 (not p66) p55) (or p14 (not p84) p54) (or p1 p61 p5) (or p86 p34 (not p78)) (or p47 (not p44) (not p7)) (or p23 p19 (not p55)) (or p29 p6 (not p35)) (or p29 (not p49) (not p38)) (or p6 p68 (not p8)) (or (not p33) (not p22) p23) (or (not p44) (not p62) (not p86)) (or p47 (not p13) (not p64)) (or p62 (not p12) (not p33)) (or (not p17) (not p45) (not p88)) (or p66 p84 p84) (or (not p59) p5 p79) (or p30 p32 p21) (or (not p55) p80 (not p71)) (or p15 (not p56) (not p39)) (or p78 (not p64) p88) (or p84 p78 p42) (or p26 (not p23) (not p79)) (or p13 p79 (not p9)) (or p29 p50 (not p85)) (or p74 (not p16) (not p86)) (or p62 (not p13) p51) (or (not p74) (not p88) p15) (or p23 (not p79) (not p19)) (or p89 p20 p60) (or p6 (not p72) (not p21)) (or (not p47) p44 (not p2)) (or (not p0) (not p23) (not p15)) (or (not p56) p67 p73) (or (not p28) (not p48) (not p14)) (or p48 (not p26) (not p43)) (or (not p77) p47 p66) (or (not p67) p80 p87) (or (not p26) (not p68) p11) (or p33 (not p22) p23) (or (not p59) (not p74) (not p24)) (or (not p43) p71 p5) (or (not p20) (not p31) p37) (or p27 (not p39) (not p55)) (or (not p41) (not p11) p32) (or (not p47) p58 (not p21)) (or p59 p0 p64) (or p14 p56 (not p11)) (or p70 (not p1) p87) (or p25 (not p43) (not p24)) (or p62 p47 p73) (or (not p29) (not p52) (not p62)) (or p53 p6 p39) (or (not p64) (not p85) p71) (or (not p46) (not p9) p55) (or (not p48) (not p80) (not p12)) (or p12 p1 p70) (or p79 (not p50) p27) (or (not p20) p73 (not p5)) (or (not p52) p36 (not p73)) (or (not p75) p25 p64) (or (not p26) (not p53) p86) (or (not p32) p17 (not p76)) (or (not p6) p4 (not p85)) (or p84 (not p84) p7) (or (not p77) p53 p58) (or p64 (not p5) (not p88)) (or (not p3) p68 (not p64)) (or (not p10) p55 (not p57)) (or (not p78) (not p72) p87) (or (not p57) p24 p11) (or (not p4) (not p42) p63) (or (not p81) p55 (not p41)) (or p78 p36 p60) (or p59 p79 (not p59)) (or (not p48) p52 p6) (or (not p39) (not p41) (not p82)) (or p46 p89 p88) (or p9 p32 p38) (or p68 p9 (not p23)) (or (not p81) p58 p9) (or (not p41) (not p6) p84) (or p65 (not p9) p33) (or (not p70) (not p62) p61) (or (not p35) p27 p86) (or (not p62) (not p8) (not p37)) (or (not p12) p43 (not p74)) (or (not p14) (not p17) (not p74)) (or (not p32) (not p79) p15) (or p65 p24 p20) (or (not p20) p27 p42) (or (not p38) p47 (not p1)) (or p64 (not p83) (not p84)) (or p77 (not p75) p82) (or (not p1) (not p81) p13) (or (not p47) (not p17) (not p87)) (or (not p51) (not p69) p11) (or p88 (not p76) (not p70)) (or p37 (not p6) (not p69)) (or p77 (not p42) p88) (or (not p72) (not p42) p2) (or p37 p40 (not p84)) (or (not p61) p23 (not p84)) (or (not p33) p27 p54) (or p74 (not p0) (not p35)) (or p64 p9 (not p18)) (or (not p31) (not p38) p26) (or p78 p6 (not p50)) (or p11 p74 p88) (or (not p8) p53 (not p4)) (or p23 p83 p79) (or (not p61) (not p24) p21) (or p38 (not p67) (not p57)) (or p3 (not p88) p6) (or (not p61) p42 p79) (or (not p78) p55 p80) (or p75 (not p21) p66) (or p45 p59 (not p78)) (or p8 p9 (not p44)) (or p2 (not p73) p40) (or p67 p74 p40) (or (not p60) p5 (not p73)) (or (not p47) p67 p72) (or (not p72) (not p64) (not p41)) (or p13 p32 p13) (or (not p8) (not p72) p55) (or (not p1) p26 (not p71)) (or (not p6) p16 (not p89)) (or p84 p4 (not p40)) (or p42 p31 (not p25)) (or p3 p85 (not p17)) (or (not p83) p24 (not p57)) (or p77 p69 (not p71)) (or (not p82) p25 p54) (or p69 (not p51) (not p15)) (or p64 (not p85) (not p6)) (or p18 p88 (not p69)) (or p13 p73 p56) (or (not p11) p65 (not p10)) (or p15 p10 p69) (or (not p77) p80 p63) (or p4 p11 p39) (or p59 (not p71) p35) (or p84 p10 (not p0)) (or p11 (not p83) (not p56)) (or (not p11) p87 (not p14)) (or (not p9) (not p39) p40) (or p57 (not p63) (not p52)) (or (not p1) p34 p78) (or (not p51) p24 p19) (or p70 (not p14) (not p14)) (or p42 p79 (not p11)) (or (not p47) (not p41) p18) (or (not p78) (not p5) p32) (or (not p20) p18 (not p63)) (or p10 p3 (not p33)) (or p88 (not p39) p62) (or (not p20) (not p61) p0) (or (not p30) p87 p49) (or (not p81) p37 (not p33)) (or p26 p73 (not p86)) (or p45 (not p76) (not p9)) (or p31 (not p22) (not p71)) (or p57 (not p77) p15) (or (not p0) p4 (not p48)) (or (not p25) (not p27) p27) (or p77 p37 (not p63)) (or (not p19) p57 p56) (or (not p63) p12 (not p70)) (or p37 (not p60) (not p79)) (or p70 (not p3) (not p27)) (or (not p13) (not p27) (not p66)) (or (not p67) p31 (not p5)) (or p6 (not p68) p7) (or p56 p73 p51) (or (not p72) p63 (not p43)) (or p85 p30 p66) (or (not p27) p9 (not p43)) (or (not p40) p63 p14) (or (not p25) p85 p69) (or (not p76) p31 p89) (or p81 (not p64) p20) (or (not p22) p3 (not p80)) (or p34 p80 (not p64)) (or p34 (not p36) p8) (or p61 (not p44) p66) (or p17 p27 p49) (or p6 (not p8) p30) (or p44 p55 p10) (or p76 (not p61) (not p11)) (or p46 (not p64) (not p60)) (or (not p23) p31 (not p83)) (or (not p75) p10 (not p13)) (or p20 (not p59) p32) (or p87 p22 p83) (or p74 (not p81) (not p9)))
)
(check-sat)
(get-model)
